sat
(:added-eqs                   345
 :arith-eq-adapter            118
 :arith-bound-propagations-lp 9
 :arith-conflicts             12
 :arith-diseq                 18
 :arith-fixed-eqs             2
 :arith-grobner-calls         8
 :arith-horner-calls          1
 :arith-lower                 137
 :arith-make-feasible         34
 :arith-max-columns           384
 :arith-max-rows              99
 :arith-nla-add-bounds        6
 :arith-nla-lemmas            8
 :arith-nla-propagate-bounds  1
 :arith-nla-propagate-eq      73
 :arith-nra-calls             1
 :arith-offset-eqs            1
 :arith-upper                 255
 :binary-propagations         468
 :conflicts                   4
 :decisions                   118
 :del-clause                  10
 :elim-unconstrained          82
 :final-checks                16
 :max-memory                  283.02
 :memory                      167.03
 :mk-bool-var                 747
 :mk-clause                   160
 :mk-clause-binary            15375
 :nlsat-conflicts             105
 :nlsat-decisions             1
 :nlsat-propagations          2847
 :nlsat-stages                1187
 :num-allocs                  1524413778
 :num-checks                  1
 :propagations                491
 :rlimit-count                2872171
 :sat-backjumps               501
 :sat-conflicts               501
 :sat-decisions               6970
 :sat-del-clause              132369
 :sat-elim-bool-vars-res      23236
 :sat-elim-clauses            5963
 :sat-elim-literals           3752
 :sat-minimized-lits          1443
 :sat-mk-clause-2ary          74854
 :sat-mk-clause-3ary          39218
 :sat-mk-clause-nary          197443
 :sat-mk-var                  47898
 :sat-probing-assigned        1394
 :sat-propagations-2ary       838908
 :sat-propagations-nary       986564
 :sat-restarts                35
 :sat-scc-elim-binary         440
 :sat-scc-elim-vars           118
 :sat-subs-resolution         1556
 :sat-subs-resolution-dyn     95
 :sat-subsumed                29158
 :sat-units                   1438
 :time                        1.86
 :total-time                  1.87)
